p edge 396 -
e 1 3
e 1 4
e 1 6
e 1 7
e 1 8
e 1 9
e 1 11
e 1 12
e 1 13
e 1 14
e 1 16
e 1 19
e 1 21
e 1 22
e 1 23
e 1 26
e 1 27
e 1 30
e 1 31
e 1 32
e 1 33
e 1 34
e 1 35
e 1 36
e 1 37
e 1 38
e 1 51
e 1 53
e 1 54
e 1 55
e 1 56
e 1 57
e 1 58
e 1 60
e 1 61
e 1 62
e 1 64
e 1 65
e 1 66
e 1 69
e 1 72
e 1 73
e 1 74
e 1 75
e 1 77
e 1 82
e 1 83
e 1 88
e 1 90
e 1 92
e 1 93
e 1 94
e 1 95
e 1 100
e 1 103
e 1 108
e 1 109
e 1 117
e 1 121
e 1 124
e 1 127
e 1 142
e 1 144
e 1 145
e 1 154
e 1 161
e 1 166
e 1 167
e 1 173
e 1 190
e 1 192
e 1 196
e 1 200
e 1 209
e 1 214
e 1 215
e 1 216
e 1 217
e 1 223
e 1 231
e 1 232
e 1 236
e 1 238
e 1 239
e 1 240
e 1 243
e 1 246
e 1 248
e 1 252
e 1 262
e 1 265
e 1 271
e 1 272
e 1 275
e 1 276
e 1 278
e 1 279
e 1 280
e 1 283
e 1 285
e 1 290
e 1 291
e 1 292
e 1 294
e 1 295
e 1 297
e 1 298
e 1 300
e 1 302
e 1 308
e 1 311
e 1 318
e 1 320
e 1 321
e 1 322
e 1 323
e 1 324
e 1 327
e 1 328
e 1 331
e 1 332
e 1 333
e 1 336
e 1 338
e 1 341
e 1 344
e 1 345
e 1 346
e 1 349
e 1 350
e 1 351
e 1 353
e 1 354
e 1 359
e 1 360
e 1 361
e 1 372
e 1 373
e 1 378
e 1 381
e 1 383
e 1 385
e 1 389
e 1 390
e 1 391
e 1 393
e 1 394
e 3 6
e 3 7
e 3 8
e 3 10
e 3 11
e 3 14
e 3 15
e 3 16
e 3 18
e 3 21
e 3 22
e 3 24
e 3 25
e 3 26
e 3 27
e 3 28
e 3 32
e 3 33
e 3 34
e 3 38
e 3 42
e 3 43
e 3 46
e 3 51
e 3 52
e 3 53
e 3 54
e 3 55
e 3 56
e 3 57
e 3 58
e 3 60
e 3 62
e 3 63
e 3 64
e 3 65
e 3 66
e 3 67
e 3 72
e 3 77
e 3 88
e 3 90
e 3 92
e 3 94
e 3 109
e 3 115
e 3 117
e 3 125
e 3 137
e 3 148
e 3 153
e 3 159
e 3 166
e 3 201
e 3 202
e 3 217
e 3 242
e 3 247
e 3 291
e 3 292
e 3 392
e 3 395
e 6 11
e 6 14
e 6 20
e 6 21
e 6 22
e 6 26
e 6 27
e 6 28
e 6 32
e 6 33
e 6 34
e 6 37
e 6 38
e 6 40
e 6 42
e 6 43
e 6 46
e 6 53
e 6 54
e 6 55
e 6 56
e 6 57
e 6 58
e 6 60
e 6 64
e 6 65
e 6 66
e 6 72
e 6 85
e 6 88
e 6 90
e 6 94
e 6 153
e 6 200
e 6 204
e 6 223
e 6 265
e 6 378
e 6 394
e 9 16
e 9 30
e 9 43
e 9 52
e 9 67
e 9 167
e 10 18
e 10 57
e 10 62
e 10 109
e 11 21
e 13 30
e 14 16
e 14 19
e 14 22
e 14 24
e 14 25
e 14 30
e 14 35
e 14 42
e 14 46
e 14 53
e 14 56
e 14 58
e 14 60
e 14 63
e 14 67
e 14 72
e 14 73
e 14 74
e 14 75
e 14 77
e 14 83
e 14 85
e 14 90
e 14 93
e 14 94
e 14 95
e 14 109
e 14 137
e 14 149
e 14 154
e 14 161
e 14 166
e 14 173
e 14 192
e 14 201
e 14 202
e 14 217
e 14 223
e 14 242
e 14 247
e 14 290
e 14 291
e 14 292
e 14 297
e 14 298
e 14 302
e 14 315
e 14 350
e 14 391
e 15 30
e 15 54
e 16 29
e 16 51
e 16 393
e 21 30
e 21 53
e 21 54
e 21 55
e 21 60
e 21 65
e 22 60
e 24 30
e 24 31
e 24 35
e 24 52
e 24 67
e 24 69
e 24 100
e 24 117
e 25 54
e 25 60
e 25 67
e 26 46
e 26 54
e 26 55
e 26 60
e 26 64
e 26 65
e 26 90
e 26 94
e 26 148
e 27 60
e 28 93
e 29 137
e 30 31
e 30 51
e 30 52
e 30 67
e 30 72
e 30 75
e 30 83
e 30 93
e 30 95
e 30 167
e 31 52
e 31 54
e 31 67
e 31 72
e 31 93
e 31 95
e 31 167
e 32 60
e 32 90
e 32 94
e 32 395
e 33 55
e 33 60
e 33 61
e 33 65
e 33 90
e 33 94
e 34 60
e 34 61
e 34 65
e 34 153
e 35 67
e 35 72
e 35 95
e 35 167
e 36 60
e 37 38
e 37 60
e 37 65
e 38 60
e 38 65
e 40 67
e 42 60
e 42 85
e 52 67
e 52 72
e 52 247
e 53 67
e 54 67
e 55 60
e 55 64
e 55 65
e 55 67
e 55 72
e 55 82
e 55 92
e 55 124
e 55 137
e 55 144
e 55 145
e 55 153
e 55 167
e 55 272
e 55 392
e 56 67
e 56 82
e 56 90
e 56 94
e 56 117
e 56 137
e 57 62
e 58 117
e 64 82
e 67 83
e 67 93
e 67 137
e 74 196
e 75 117
e 75 154
e 75 166
e 75 204
e 75 291
e 75 351
e 82 92
e 82 124
e 82 144
e 83 137
e 83 154
e 92 124
e 108 121
e 109 137
e 124 144
e 124 145
e 124 287
e 124 322
e 124 387
e 124 392
e 137 153
e 137 167
e 137 372
e 144 204
e 145 394
e 153 395
e 154 167
e 154 217
e 154 291
e 154 297
e 159 190
e 201 231
e 209 236
e 209 237
e 209 240
e 209 259
e 214 209
e 214 238
e 214 240
e 214 255
e 214 276
e 214 305
e 214 374
e 215 209
e 215 214
e 215 216
e 215 227
e 215 229
e 215 236
e 215 237
e 215 238
e 215 239
e 215 240
e 215 243
e 215 246
e 215 252
e 215 253
e 215 254
e 215 255
e 215 256
e 215 259
e 215 260
e 215 263
e 215 265
e 215 271
e 215 272
e 215 273
e 215 275
e 215 276
e 215 278
e 215 279
e 215 280
e 215 281
e 215 282
e 215 283
e 215 284
e 215 285
e 215 287
e 215 298
e 215 300
e 215 305
e 215 309
e 215 310
e 215 311
e 215 314
e 215 315
e 215 316
e 215 317
e 215 318
e 215 319
e 215 320
e 215 321
e 215 322
e 215 323
e 215 324
e 215 326
e 215 327
e 215 328
e 215 329
e 215 330
e 215 331
e 215 332
e 215 334
e 215 335
e 215 336
e 215 337
e 215 338
e 215 339
e 215 340
e 215 341
e 215 342
e 215 343
e 215 344
e 215 345
e 215 346
e 215 347
e 215 348
e 215 350
e 215 351
e 215 353
e 215 354
e 215 355
e 215 356
e 215 358
e 215 360
e 215 362
e 215 363
e 215 366
e 215 368
e 215 373
e 215 374
e 215 376
e 215 377
e 215 378
e 215 379
e 215 380
e 215 382
e 215 383
e 215 384
e 215 385
e 215 386
e 215 387
e 215 389
e 215 390
e 215 391
e 215 392
e 215 395
e 216 236
e 223 298
e 227 252
e 227 255
e 227 256
e 227 260
e 227 265
e 227 281
e 227 283
e 227 317
e 227 338
e 227 353
e 227 385
e 227 387
e 232 294
e 232 350
e 236 246
e 236 265
e 236 271
e 236 275
e 236 278
e 236 320
e 236 321
e 236 322
e 236 331
e 236 332
e 236 353
e 236 381
e 236 387
e 236 391
e 237 265
e 237 281
e 238 255
e 238 256
e 238 259
e 238 278
e 238 280
e 238 281
e 238 314
e 238 328
e 238 329
e 238 353
e 238 356
e 238 391
e 239 255
e 239 256
e 239 260
e 239 265
e 239 278
e 239 279
e 239 280
e 239 281
e 239 283
e 239 285
e 239 300
e 239 309
e 239 311
e 239 314
e 239 317
e 239 326
e 239 328
e 239 329
e 239 330
e 239 333
e 239 337
e 239 338
e 239 340
e 239 341
e 239 342
e 239 353
e 239 356
e 239 362
e 239 366
e 239 374
e 239 376
e 239 377
e 239 382
e 239 383
e 239 385
e 239 387
e 239 391
e 239 392
e 240 227
e 240 236
e 240 239
e 240 241
e 240 243
e 240 252
e 240 255
e 240 256
e 240 259
e 240 265
e 240 271
e 240 277
e 240 278
e 240 280
e 240 281
e 240 283
e 240 285
e 240 287
e 240 309
e 240 314
e 240 317
e 240 320
e 240 321
e 240 322
e 240 323
e 240 326
e 240 328
e 240 329
e 240 332
e 240 333
e 240 334
e 240 337
e 240 339
e 240 340
e 240 344
e 240 353
e 240 356
e 240 376
e 240 382
e 240 385
e 240 386
e 240 391
e 241 243
e 241 252
e 241 255
e 241 278
e 241 310
e 241 316
e 241 334
e 241 373
e 243 256
e 243 265
e 243 280
e 243 281
e 243 284
e 243 285
e 243 309
e 243 310
e 243 311
e 243 316
e 243 327
e 243 337
e 243 340
e 243 341
e 243 342
e 243 353
e 243 362
e 243 363
e 243 373
e 243 379
e 243 382
e 243 387
e 243 391
e 245 271
e 245 287
e 245 321
e 245 322
e 245 335
e 245 353
e 245 378
e 246 265
e 246 271
e 246 273
e 246 308
e 246 309
e 246 310
e 246 320
e 246 321
e 246 322
e 246 323
e 246 331
e 246 332
e 246 335
e 246 337
e 246 344
e 246 345
e 246 346
e 246 347
e 246 353
e 246 354
e 246 359
e 246 361
e 246 368
e 246 375
e 246 381
e 246 382
e 246 387
e 246 389
e 246 390
e 246 391
e 246 392
e 252 253
e 252 263
e 252 265
e 252 280
e 252 281
e 252 283
e 252 285
e 252 310
e 252 319
e 252 328
e 252 329
e 252 334
e 252 337
e 252 339
e 252 340
e 252 343
e 252 344
e 252 353
e 252 356
e 252 360
e 252 366
e 252 375
e 252 376
e 252 377
e 252 379
e 252 382
e 252 383
e 252 385
e 252 386
e 252 391
e 253 363
e 255 265
e 255 353
e 255 376
e 255 383
e 255 391
e 259 391
e 260 317
e 260 330
e 260 342
e 260 353
e 260 366
e 263 319
e 263 337
e 263 379
e 263 380
e 265 281
e 265 315
e 265 322
e 265 337
e 265 341
e 265 353
e 265 362
e 265 379
e 265 380
e 265 381
e 265 383
e 265 385
e 265 391
e 271 309
e 271 310
e 271 320
e 271 321
e 271 322
e 271 323
e 271 335
e 271 344
e 271 347
e 271 353
e 271 368
e 271 378
e 271 381
e 271 385
e 271 389
e 271 391
e 272 265
e 272 281
e 272 309
e 272 319
e 272 322
e 272 353
e 272 381
e 272 383
e 272 391
e 272 392
e 272 395
e 273 368
e 273 389
e 273 390
e 273 391
e 275 320
e 275 353
e 275 381
e 276 333
e 276 344
e 276 353
e 277 326
e 278 260
e 278 265
e 278 281
e 278 328
e 278 339
e 278 353
e 278 376
e 278 383
e 278 387
e 278 391
e 279 265
e 279 309
e 279 311
e 279 316
e 279 337
e 279 339
e 279 340
e 279 341
e 279 343
e 279 344
e 279 353
e 279 363
e 279 375
e 279 382
e 279 386
e 279 391
e 280 260
e 280 281
e 280 317
e 280 338
e 280 339
e 280 353
e 280 366
e 280 383
e 280 387
e 281 319
e 281 330
e 281 342
e 281 353
e 281 366
e 281 383
e 281 391
e 282 362
e 283 265
e 283 311
e 283 337
e 283 341
e 283 353
e 283 376
e 283 383
e 283 391
e 285 265
e 285 281
e 285 300
e 285 309
e 285 314
e 285 317
e 285 322
e 285 327
e 285 329
e 285 339
e 285 340
e 285 353
e 285 356
e 285 382
e 285 385
e 285 386
e 285 387
e 285 391
e 287 265
e 287 309
e 287 310
e 287 322
e 287 323
e 287 335
e 287 336
e 287 344
e 287 345
e 287 347
e 287 353
e 287 366
e 287 368
e 287 374
e 287 378
e 287 385
e 287 386
e 287 389
e 287 390
e 287 391
e 309 340
e 309 382
e 309 383
e 310 353
e 310 383
e 311 337
e 311 376
e 317 366
e 322 323
e 322 337
e 322 338
e 322 347
e 322 353
e 322 368
e 322 379
e 322 381
e 322 385
e 322 387
e 322 389
e 322 390
e 322 391
e 322 392
e 323 310
e 323 375
e 323 378
e 323 391
e 343 336
e 343 337
e 343 340
e 343 341
e 343 353
e 343 360
e 343 375
e 343 382
e 343 383
e 343 386
e 343 391
e 345 322
e 345 335
e 345 353
e 345 378
e 345 386
e 345 389
e 345 390
e 345 391
e 346 335
e 346 353
